num_offers = 40;
start = [30, 30, 30, 1, 1, 28, 86, 86, 86, 86, 86, 86, 86, 86, 1, 1, 1, 1, 1, 1, 7, 7, 7, 7, 7, 7, 7, 65, 65, 30, 30, 30, 16, 16, 16, 16, 16, 16, 16, 30];
end = [90, 90, 90, 96, 96, 67, 90, 90, 90, 90, 90, 90, 90, 90, 26, 26, 26, 26, 26, 26, 31, 31, 31, 31, 31, 31, 31, 69, 69, 44, 44, 44, 42, 42, 42, 42, 42, 42, 42, 33];
price = [2013, 2013, 2013, 2304, 2304, 640, 205, 205, 205, 205, 205, 205, 205, 205, 1846, 1846, 1846, 1846, 1846, 1846, 1825, 1825, 1825, 1825, 1825, 1825, 1825, 320, 320, 270, 270, 270, 2619, 2619, 2619, 2619, 2619, 2619, 2619, 292];
num_halls = 10;
capacity = [993,993,993,993,519,845,845,845,371,697];
requirement = [777,777,777,777,777,777,777,303,303,303,303,303,629,629,629,955,513,513,513,513,513,513,513,838,838,838,838,364,364,690,690,690,690,690,690,690,690,216,216,216];
